NAME : sim161.130123.tour
COMMENT : Length = 130123
COMMENT : Found by LKH [Keld Helsgaun] Mon Sep 17 06:28:00 2018
TYPE : TOUR
DIMENSION : 161
TOUR_SECTION
1
58
43
52
127
113
21
23
22
102
157
87
135
143
152
54
10
14
32
75
105
119
129
49
30
78
62
90
115
19
139
27
94
144
85
67
17
125
74
158
26
57
99
147
68
84
141
146
93
60
28
56
51
137
64
40
38
65
55
88
31
29
6
92
126
128
18
76
133
73
7
96
69
2
33
120
155
151
107
123
4
124
44
61
161
9
148
37
117
160
15
66
136
111
82
46
112
16
42
12
114
11
8
132
79
122
131
77
109
110
121
145
98
106
81
53
154
118
45
86
41
34
59
13
83
91
24
153
72
71
140
35
39
50
89
5
149
3
80
108
95
130
142
36
25
101
138
20
116
134
63
150
48
47
103
100
156
97
70
159
104
-1
EOF
